interface ILed {
	extern Pin $int$;
	
	in void initialise(Pin pin);
	in void turnOn();
	in void turnOff();
	
	behaviour {
		enum State {On, Off};
		State state = State.Off;
		
		[state.Off] {
			on initialise: {state = State.Off;}
			on turnOn: {state = State.On;}
			on turnOff: illegal;		
		}
		
		[state.On] {
			on initialise: illegal;
			on turnOn: illegal;
			on turnOff: {state = State.Off;}			
		}
	}
}

component Led
{
	provides ILed led;
}